interdiction/MCDM/NO_CORR/GEN_FROM_60/12_ITEMS_1000_GEN/K5012W19.KNP.mps
NAME          BLANK   
ROWS
 N  OBJROW
 L  R0000000
COLUMNS
    C0000000  OBJROW     -500.         R0000000  16.         
    C0000001  OBJROW     -229.         R0000000  759.        
    C0000002  OBJROW     -609.         R0000000  714.        
    C0000003  OBJROW     -449.         R0000000  912.        
    C0000004  OBJROW     -185.         R0000000  725.        
    C0000005  OBJROW     -47.          R0000000  729.        
    C0000006  OBJROW     -200.         R0000000  713.        
    C0000007  OBJROW     -918.         R0000000  575.        
    C0000008  OBJROW     -783.         R0000000  234.        
    C0000009  OBJROW     -68.          R0000000  488.        
    C0000010  OBJROW     -959.         R0000000  634.        
    C0000011  OBJROW     -409.         R0000000  503.        
RHS
    RHS       R0000000  14458.      
BOUNDS
 BV BOUND     C0000000  1.          
 BV BOUND     C0000001  1.          
 BV BOUND     C0000002  1.          
 BV BOUND     C0000003  1.          
 BV BOUND     C0000004  1.          
 BV BOUND     C0000005  1.          
 BV BOUND     C0000006  1.          
 BV BOUND     C0000007  1.          
 BV BOUND     C0000008  1.          
 BV BOUND     C0000009  1.          
 BV BOUND     C0000010  1.          
 BV BOUND     C0000011  1.          
ENDATA
