data/MCDM/NO_CORR/GEN_FROM_60/12_ITEMS_1000_GEN/K5012W19.KNP.txt
N 12
M 13
LC 12
LC 13
LC 14
LC 15
LC 16
LC 17
LC 18
LC 19
LC 20
LC 21
LC 22
LC 23
LR 1
LR 2
LR 3
LR 4
LR 5
LR 6
LR 7
LR 8
LR 9
LR 10
LR 11
LR 12
LR 13
LO -500
LO -229
LO -609
LO -449
LO -185
LO -47
LO -200
LO -918
LO -783
LO -68
LO -959
LO -409
OS 1
IC 638
IC 556
IC 261
IC 477
IC 432
IC 528
IC 254
IC 366
IC 379
IC 968
IC 227
IC 991
IB 3039
